%%%mzn-stat: initTime=0.015361284
%%%mzn-stat: objective=164
%%%mzn-stat: nodes=173313
%%%mzn-stat: restarts=293
%%%mzn-stat: peakDepth=604
%%%mzn-stat: solveTime=33.349642943
%%%mzn-stat: variables=1334
%%%mzn-stat: propagators=1014
%%%mzn-stat: failures=60503
%%%mzn-stat: propagations=3184988
%%%mzn-stat: nogoods=60503
%%%mzn-stat: AverageConflictSize=29.336892385501546
%%%mzn-stat: NumUnitNogoodsLearned=163
%%%mzn-stat: AverageLearnedNogoodLength=38.804290696329105
%%%mzn-stat: AverageBacktrackAmount=0
%%%mzn-stat: AverageLbd=20.63578665520718
%%%mzn-stat-end
maxleg = 164;
succ = array1d(1..100,[75, 29, 82, 11, 36, 42, 71, 68, 30, 70, 84, 92, 80, 37, 47, 22, 91, 64, 89, 31, 7, 45, 83, 18, 66, 99, 58, 54, 5, 41, 25, 28, 76, 1, 85, 34, 87, 15, 55, 19, 62, 100, 57, 21, 77, 20, 24, 74, 78, 44, 95, 96, 9, 53, 16, 52, 6, 51, 65, 23, 43, 40, 49, 73, 33, 67, 63, 10, 94, 72, 13, 59, 27, 93, 35, 56, 12, 26, 97, 4, 32, 61, 3, 60, 88, 50, 46, 38, 86, 39, 81, 17, 2, 8, 69, 14, 90, 48, 79, 98]);
% time elapsed: 34.79 s
----------
==========
% time elapsed: 34.79 s
%%%mzn-stat: initTime=0.015361284
%%%mzn-stat: objective=164
%%%mzn-stat: nodes=173313
%%%mzn-stat: restarts=293
%%%mzn-stat: peakDepth=604
%%%mzn-stat: solveTime=33.349646115
%%%mzn-stat: variables=1334
%%%mzn-stat: propagators=1014
%%%mzn-stat: failures=60503
%%%mzn-stat: propagations=3184988
%%%mzn-stat: nogoods=60503
%%%mzn-stat: AverageConflictSize=29.336892385501546
%%%mzn-stat: NumUnitNogoodsLearned=163
%%%mzn-stat: AverageLearnedNogoodLength=38.804290696329105
%%%mzn-stat: AverageBacktrackAmount=0
%%%mzn-stat: AverageLbd=20.63578665520718
%%%mzn-stat-end
